c description: Tseitin formula on , with odd charge
c generator: CNFgen (0.9.0)
c copyright: (C) 2012-2020 Massimo Lauria <massimo.lauria@uniroma1.it>
c url: https://massimolauria.net/cnfgen
c
p cnf 40 274
1 2 3 0
1 -2 -3 0
-1 2 -3 0
-1 -2 3 0
4 5 6 7 -8 0
4 5 6 -7 8 0
4 5 -6 7 8 0
4 5 -6 -7 -8 0
4 -5 6 7 8 0
4 -5 6 -7 -8 0
4 -5 -6 7 -8 0
4 -5 -6 -7 8 0
-4 5 6 7 8 0
-4 5 6 -7 -8 0
-4 5 -6 7 -8 0
-4 5 -6 -7 8 0
-4 -5 6 7 -8 0
-4 -5 6 -7 8 0
-4 -5 -6 7 8 0
-4 -5 -6 -7 -8 0
4 9 -10 0
4 -9 10 0
-4 9 10 0
-4 -9 -10 0
1 5 11 12 13 -14 0
1 5 11 12 -13 14 0
1 5 11 -12 13 14 0
1 5 11 -12 -13 -14 0
1 5 -11 12 13 14 0
1 5 -11 12 -13 -14 0
1 5 -11 -12 13 -14 0
1 5 -11 -12 -13 14 0
1 -5 11 12 13 14 0
1 -5 11 12 -13 -14 0
1 -5 11 -12 13 -14 0
1 -5 11 -12 -13 14 0
1 -5 -11 12 13 -14 0
1 -5 -11 12 -13 14 0
1 -5 -11 -12 13 14 0
1 -5 -11 -12 -13 -14 0
-1 5 11 12 13 14 0
-1 5 11 12 -13 -14 0
-1 5 11 -12 13 -14 0
-1 5 11 -12 -13 14 0
-1 5 -11 12 13 -14 0
-1 5 -11 12 -13 14 0
-1 5 -11 -12 13 14 0
-1 5 -11 -12 -13 -14 0
-1 -5 11 12 13 -14 0
-1 -5 11 12 -13 14 0
-1 -5 11 -12 13 14 0
-1 -5 11 -12 -13 -14 0
-1 -5 -11 12 13 14 0
-1 -5 -11 12 -13 -14 0
-1 -5 -11 -12 13 -14 0
-1 -5 -11 -12 -13 14 0
15 16 -17 0
15 -16 17 0
-15 16 17 0
-15 -16 -17 0
6 -18 0
-6 18 0
-19 0
2 15 20 -21 0
2 15 -20 21 0
2 -15 20 21 0
2 -15 -20 -21 0
-2 15 20 21 0
-2 15 -20 -21 0
-2 -15 20 -21 0
-2 -15 -20 21 0
22 23 24 -25 0
22 23 -24 25 0
22 -23 24 25 0
22 -23 -24 -25 0
-22 23 24 25 0
-22 23 -24 -25 0
-22 -23 24 -25 0
-22 -23 -24 25 0
9 26 27 -28 0
9 26 -27 28 0
9 -26 27 28 0
9 -26 -27 -28 0
-9 26 27 28 0
-9 26 -27 -28 0
-9 -26 27 -28 0
-9 -26 -27 28 0
11 29 30 31 -32 0
11 29 30 -31 32 0
11 29 -30 31 32 0
11 29 -30 -31 -32 0
11 -29 30 31 32 0
11 -29 30 -31 -32 0
11 -29 -30 31 -32 0
11 -29 -30 -31 32 0
-11 29 30 31 32 0
-11 29 30 -31 -32 0
-11 29 -30 31 -32 0
-11 29 -30 -31 32 0
-11 -29 30 31 -32 0
-11 -29 30 -31 32 0
-11 -29 -30 31 32 0
-11 -29 -30 -31 -32 0
20 29 33 -34 0
20 29 -33 34 0
20 -29 33 34 0
20 -29 -33 -34 0
-20 29 33 34 0
-20 29 -33 -34 0
-20 -29 33 -34 0
-20 -29 -33 34 0
7 26 33 35 -36 0
7 26 33 -35 36 0
7 26 -33 35 36 0
7 26 -33 -35 -36 0
7 -26 33 35 36 0
7 -26 33 -35 -36 0
7 -26 -33 35 -36 0
7 -26 -33 -35 36 0
-7 26 33 35 36 0
-7 26 33 -35 -36 0
-7 26 -33 35 -36 0
-7 26 -33 -35 36 0
-7 -26 33 35 -36 0
-7 -26 33 -35 36 0
-7 -26 -33 35 36 0
-7 -26 -33 -35 -36 0
-19 0
22 30 35 37 -38 0
22 30 35 -37 38 0
22 30 -35 37 38 0
22 30 -35 -37 -38 0
22 -30 35 37 38 0
22 -30 35 -37 -38 0
22 -30 -35 37 -38 0
22 -30 -35 -37 38 0
-22 30 35 37 38 0
-22 30 35 -37 -38 0
-22 30 -35 37 -38 0
-22 30 -35 -37 38 0
-22 -30 35 37 -38 0
-22 -30 35 -37 38 0
-22 -30 -35 37 38 0
-22 -30 -35 -37 -38 0
16 21 23 27 -36 0
16 21 23 -27 36 0
16 21 -23 27 36 0
16 21 -23 -27 -36 0
16 -21 23 27 36 0
16 -21 23 -27 -36 0
16 -21 -23 27 -36 0
16 -21 -23 -27 36 0
-16 21 23 27 36 0
-16 21 23 -27 -36 0
-16 21 -23 27 -36 0
-16 21 -23 -27 36 0
-16 -21 23 27 -36 0
-16 -21 23 -27 36 0
-16 -21 -23 27 36 0
-16 -21 -23 -27 -36 0
31 -39 0
-31 39 0
8 10 12 17 34 37 -40 0
8 10 12 17 34 -37 40 0
8 10 12 17 -34 37 40 0
8 10 12 17 -34 -37 -40 0
8 10 12 -17 34 37 40 0
8 10 12 -17 34 -37 -40 0
8 10 12 -17 -34 37 -40 0
8 10 12 -17 -34 -37 40 0
8 10 -12 17 34 37 40 0
8 10 -12 17 34 -37 -40 0
8 10 -12 17 -34 37 -40 0
8 10 -12 17 -34 -37 40 0
8 10 -12 -17 34 37 -40 0
8 10 -12 -17 34 -37 40 0
8 10 -12 -17 -34 37 40 0
8 10 -12 -17 -34 -37 -40 0
8 -10 12 17 34 37 40 0
8 -10 12 17 34 -37 -40 0
8 -10 12 17 -34 37 -40 0
8 -10 12 17 -34 -37 40 0
8 -10 12 -17 34 37 -40 0
8 -10 12 -17 34 -37 40 0
8 -10 12 -17 -34 37 40 0
8 -10 12 -17 -34 -37 -40 0
8 -10 -12 17 34 37 -40 0
8 -10 -12 17 34 -37 40 0
8 -10 -12 17 -34 37 40 0
8 -10 -12 17 -34 -37 -40 0
8 -10 -12 -17 34 37 40 0
8 -10 -12 -17 34 -37 -40 0
8 -10 -12 -17 -34 37 -40 0
8 -10 -12 -17 -34 -37 40 0
-8 10 12 17 34 37 40 0
-8 10 12 17 34 -37 -40 0
-8 10 12 17 -34 37 -40 0
-8 10 12 17 -34 -37 40 0
-8 10 12 -17 34 37 -40 0
-8 10 12 -17 34 -37 40 0
-8 10 12 -17 -34 37 40 0
-8 10 12 -17 -34 -37 -40 0
-8 10 -12 17 34 37 -40 0
-8 10 -12 17 34 -37 40 0
-8 10 -12 17 -34 37 40 0
-8 10 -12 17 -34 -37 -40 0
-8 10 -12 -17 34 37 40 0
-8 10 -12 -17 34 -37 -40 0
-8 10 -12 -17 -34 37 -40 0
-8 10 -12 -17 -34 -37 40 0
-8 -10 12 17 34 37 -40 0
-8 -10 12 17 34 -37 40 0
-8 -10 12 17 -34 37 40 0
-8 -10 12 17 -34 -37 -40 0
-8 -10 12 -17 34 37 40 0
-8 -10 12 -17 34 -37 -40 0
-8 -10 12 -17 -34 37 -40 0
-8 -10 12 -17 -34 -37 40 0
-8 -10 -12 17 34 37 40 0
-8 -10 -12 17 34 -37 -40 0
-8 -10 -12 17 -34 37 -40 0
-8 -10 -12 17 -34 -37 40 0
-8 -10 -12 -17 34 37 -40 0
-8 -10 -12 -17 34 -37 40 0
-8 -10 -12 -17 -34 37 40 0
-8 -10 -12 -17 -34 -37 -40 0
3 13 24 28 32 -38 0
3 13 24 28 -32 38 0
3 13 24 -28 32 38 0
3 13 24 -28 -32 -38 0
3 13 -24 28 32 38 0
3 13 -24 28 -32 -38 0
3 13 -24 -28 32 -38 0
3 13 -24 -28 -32 38 0
3 -13 24 28 32 38 0
3 -13 24 28 -32 -38 0
3 -13 24 -28 32 -38 0
3 -13 24 -28 -32 38 0
3 -13 -24 28 32 -38 0
3 -13 -24 28 -32 38 0
3 -13 -24 -28 32 38 0
3 -13 -24 -28 -32 -38 0
-3 13 24 28 32 38 0
-3 13 24 28 -32 -38 0
-3 13 24 -28 32 -38 0
-3 13 24 -28 -32 38 0
-3 13 -24 28 32 -38 0
-3 13 -24 28 -32 38 0
-3 13 -24 -28 32 38 0
-3 13 -24 -28 -32 -38 0
-3 -13 24 28 32 -38 0
-3 -13 24 28 -32 38 0
-3 -13 24 -28 32 38 0
-3 -13 24 -28 -32 -38 0
-3 -13 -24 28 32 38 0
-3 -13 -24 28 -32 -38 0
-3 -13 -24 -28 32 -38 0
-3 -13 -24 -28 -32 38 0
14 18 25 39 -40 0
14 18 25 -39 40 0
14 18 -25 39 40 0
14 18 -25 -39 -40 0
14 -18 25 39 40 0
14 -18 25 -39 -40 0
14 -18 -25 39 -40 0
14 -18 -25 -39 40 0
-14 18 25 39 40 0
-14 18 25 -39 -40 0
-14 18 -25 39 -40 0
-14 18 -25 -39 40 0
-14 -18 25 39 -40 0
-14 -18 25 -39 40 0
-14 -18 -25 39 40 0
-14 -18 -25 -39 -40 0